assets/logs/3_10x10_clingo/3_10x10_clingo.solution.log

-----------------------------------------
| 81| 59| 73| 63| 14| 20| 10|  0|  6| 35|
-----------------------------------------
| 75| 65| 79| 57|  1|  1| 16| 33|  0|  1|
-----------------------------------------
| 30| 83| 61| 71| 18| 12| 22|  8| 37|  4|
-----------------------------------------
| 67| 77| 32| 26| 55|  5| 51|  2| 31|  1|
-----------------------------------------
| 85| 28| 69|  7| 42| 24|  1|  3| 25| 39|
-----------------------------------------
| 84|  9| 40| 34| 56| 53| 44| 49| 68| 29|
-----------------------------------------
| 38| 87| 82| 11| 46| 15| 70| 27| 41| 23|
-----------------------------------------
| 76| 86| 36| 54| 72| 58| 47| 17|  0| 66|
-----------------------------------------
|  1| 52| 74| 80| 13| 48| 62|  1| 21| 43|
-----------------------------------------
| 88| 78|  0| 50| 60|  1| 19| 45| 64|  0|
-----------------------------------------

| n = 10 | k = 8 | coverage = 95, 95.0%
 Time 299.971
 Name 3_10x10_clingo

