assets/logs/3_10x10_clingo/3_10x10_clingo.log
clingo version 5.4.0
Reading from ...ts/logs/3_10x10_clingo/knights_tour.lp ...
Solving...
Answer: 1
occ(1,2,5) occ(1,2,6) occ(1,10,6) occ(1,5,7) occ(1,9,8) occ(1,9,1) occ(1,2,10) occ(1,4,10) occ(2,4,8) occ(3,5,8) coverage(6)
Optimization: -6
Answer: 2
occ(1,2,5) occ(1,2,6) occ(1,10,6) occ(1,5,7) occ(1,9,8) occ(1,9,1) occ(1,2,10) occ(1,4,10) occ(2,4,8) occ(3,5,8) coverage(7) occ(6,1,9) occ(4,3,10)
Optimization: -7
Answer: 3
occ(1,2,5) occ(1,2,6) occ(1,10,6) occ(1,5,7) occ(1,9,8) occ(1,9,1) occ(1,2,10) occ(1,4,10) occ(2,4,8) occ(3,5,8) coverage(8) occ(6,1,9) occ(4,3,10) occ(7,4,9) occ(5,6,10)
Optimization: -8
Answer: 4
occ(1,2,5) occ(1,2,6) occ(1,10,6) occ(1,5,7) occ(1,9,8) occ(1,9,1) occ(1,2,10) occ(1,4,10) occ(2,4,8) occ(3,5,8) coverage(11) occ(9,2,8) occ(4,3,10) occ(7,4,9) occ(6,5,9) occ(5,6,10) occ(8,7,10) occ(10,9,9)
Optimization: -11
Answer: 5
occ(1,2,5) occ(1,2,6) occ(1,10,6) occ(1,5,7) occ(1,9,8) occ(1,9,1) occ(1,2,10) occ(1,4,10) occ(2,4,8) occ(3,5,8) coverage(36) occ(19,1,4) occ(23,1,2) occ(57,1,5) occ(85,1,3) occ(14,2,8) occ(17,2,2) occ(25,2,4) occ(55,2,3) occ(59,2,7) occ(83,2,1) occ(10,3,7) occ(11,3,4) occ(16,3,10) occ(21,3,3) occ(27,3,2) occ(53,3,1) occ(12,4,9) occ(15,4,1) occ(51,4,3) occ(61,4,6) occ(81,4,2) occ(4,5,10) occ(8,5,6) occ(9,5,5) occ(13,5,3) occ(18,5,9) occ(29,5,1) occ(6,6,8) occ(7,6,7) occ(33,6,4) occ(49,6,2) occ(63,6,5) occ(79,6,3) occ(5,7,9) occ(20,7,10) occ(31,7,2) occ(39,7,6) occ(65,7,7) occ(77,7,5) occ(28,8,7) occ(32,8,9) occ(35,8,5) occ(41,8,4) occ(47,8,1) occ(71,8,3) occ(22,9,9) occ(26,9,5) occ(37,9,7) occ(45,9,3) occ(67,9,6) occ(75,9,4) occ(24,10,7) occ(30,10,8) occ(34,10,10) occ(43,10,5) occ(69,10,4) occ(73,10,2)
Optimization: -36
Answer: 6
occ(1,2,5) occ(1,2,6) occ(1,10,6) occ(1,5,7) occ(1,9,8) occ(1,9,1) occ(1,2,10) occ(1,4,10) occ(2,4,8) occ(3,5,8) coverage(52) occ(24,1,2) occ(33,1,7) occ(41,1,9) occ(45,1,5) occ(49,1,1) occ(63,1,8) occ(26,2,4) occ(37,2,8) occ(43,2,7) occ(47,2,3) occ(22,3,3) occ(31,3,8) occ(35,3,6) occ(39,3,10) occ(50,3,1) occ(51,3,2) occ(57,3,5) occ(61,3,9) occ(65,3,7) occ(91,3,4) occ(20,4,1) occ(28,4,5) occ(29,4,6) occ(36,4,3) occ(53,4,4) occ(59,4,7) occ(67,4,9) occ(89,4,2) occ(6,5,9) occ(7,5,10) occ(27,5,4) occ(30,5,3) occ(34,5,1) occ(48,5,2) occ(55,5,6) occ(85,5,5) occ(4,6,7) occ(9,6,8) occ(15,6,9) occ(18,6,2) occ(19,6,5) occ(38,6,4) occ(69,6,10) occ(87,6,3) occ(5,7,9) occ(8,7,8) occ(11,7,10) occ(17,7,7) occ(25,7,3) occ(32,7,2) occ(40,7,6) occ(46,7,1) occ(83,7,4) occ(13,8,8) occ(16,8,1) occ(21,8,6) occ(42,8,4) occ(71,8,9) occ(75,8,7) occ(81,8,2) occ(10,9,7) occ(14,9,3) occ(23,9,4) occ(44,9,2) occ(77,9,5) occ(12,10,5) occ(73,10,8) occ(79,10,3)
Optimization: -52
Answer: 7
occ(1,2,5) occ(1,2,6) occ(1,10,6) occ(1,5,7) occ(1,9,8) occ(1,9,1) occ(1,2,10) occ(1,4,10) occ(2,4,8) occ(3,5,8) coverage(60) occ(24,1,2) occ(33,1,7) occ(41,1,9) occ(45,1,5) occ(49,1,1) occ(53,1,3) occ(59,1,4) occ(63,1,6) occ(26,2,4) occ(37,2,8) occ(43,2,7) occ(47,2,3) occ(57,2,2) occ(91,2,1) occ(22,3,3) occ(31,3,8) occ(35,3,6) occ(39,3,10) occ(51,3,2) occ(55,3,4) occ(61,3,5) occ(65,3,7) occ(20,4,1) occ(28,4,5) occ(29,4,6) occ(36,4,3) occ(50,4,4) occ(67,4,9) occ(71,4,7) occ(89,4,2) occ(9,5,9) occ(27,5,4) occ(30,5,3) occ(34,5,1) occ(48,5,2) occ(52,5,6) occ(85,5,5) occ(4,6,9) occ(7,6,7) occ(18,6,2) occ(19,6,5) occ(38,6,4) occ(69,6,8) occ(73,6,6) occ(87,6,3) occ(5,7,9) occ(8,7,8) occ(11,7,10) occ(17,7,7) occ(25,7,3) occ(32,7,2) occ(40,7,6) occ(46,7,1) occ(54,7,5) occ(83,7,4) occ(6,8,10) occ(13,8,8) occ(16,8,3) occ(21,8,6) occ(42,8,4) occ(56,8,7) occ(75,8,5) occ(81,8,2) occ(10,9,9) occ(14,9,5) occ(15,9,6) occ(23,9,4) occ(44,9,2) occ(77,9,3) occ(12,10,7) occ(58,10,8) occ(79,10,1)
Optimization: -60
Answer: 8
occ(1,2,5) occ(1,2,6) occ(1,10,6) occ(1,5,7) occ(1,9,8) occ(1,9,1) occ(1,2,10) occ(1,4,10) occ(2,4,8) occ(3,5,8) coverage(66) occ(8,1,10) occ(33,1,7) occ(41,1,3) occ(48,1,2) occ(53,1,1) occ(56,1,6) occ(62,1,9) occ(10,2,8) occ(43,2,1) occ(50,2,4) occ(55,2,3) occ(60,2,7) occ(6,3,9) occ(31,3,8) occ(35,3,6) occ(39,3,4) occ(46,3,3) occ(51,3,2) occ(54,3,7) occ(57,3,1) occ(58,3,5) occ(64,3,10) occ(12,4,9) occ(18,4,4) occ(24,4,1) occ(29,4,6) occ(45,4,2) occ(52,4,5) occ(59,4,3) occ(75,4,7) occ(4,5,10) occ(16,5,6) occ(22,5,3) occ(27,5,4) occ(37,5,5) occ(44,5,2) occ(49,5,1) occ(73,5,9) occ(7,6,7) occ(14,6,8) occ(20,6,5) occ(26,6,2) occ(47,6,3) occ(61,6,4) occ(77,6,6) occ(5,7,9) occ(9,7,5) occ(21,7,7) occ(25,7,3) occ(36,7,6) occ(42,7,1) occ(71,7,10) occ(79,7,8) occ(87,7,4) occ(13,8,8) occ(19,8,9) occ(23,8,5) occ(28,8,1) occ(38,8,4) occ(63,8,3) occ(67,8,7) occ(81,8,6) occ(85,8,2) occ(11,9,6) occ(15,9,10) occ(30,9,3) occ(34,9,7) occ(40,9,2) occ(65,9,5) occ(69,9,9) occ(83,9,4) occ(17,10,8) occ(32,10,5)
Optimization: -66
Answer: 9
occ(1,2,5) occ(1,2,6) occ(1,10,6) occ(1,5,7) occ(1,9,8) occ(1,9,1) occ(1,2,10) occ(1,4,10) occ(2,4,8) occ(3,5,8) coverage(68) occ(6,1,9) occ(33,1,7) occ(41,1,3) occ(48,1,2) occ(53,1,1) occ(60,1,6) occ(64,1,4) occ(8,2,7) occ(43,2,1) occ(50,2,4) occ(55,2,3) occ(58,2,8) occ(66,2,2) occ(4,3,10) occ(10,3,9) occ(31,3,8) occ(35,3,6) occ(39,3,4) occ(46,3,3) occ(51,3,2) occ(54,3,7) occ(57,3,1) occ(62,3,5) occ(18,4,4) occ(24,4,1) occ(29,4,6) occ(45,4,2) occ(52,4,5) occ(56,4,9) occ(59,4,3) occ(75,4,7) occ(12,5,10) occ(16,5,6) occ(22,5,3) occ(27,5,4) occ(37,5,5) occ(44,5,2) occ(49,5,1) occ(73,5,9) occ(7,6,7) occ(14,6,8) occ(20,6,5) occ(26,6,2) occ(47,6,3) occ(61,6,4) occ(77,6,6) occ(5,7,9) occ(9,7,5) occ(21,7,7) occ(25,7,3) occ(36,7,6) occ(42,7,1) occ(71,7,10) occ(79,7,8) occ(87,7,4) occ(13,8,8) occ(19,8,9) occ(23,8,5) occ(28,8,1) occ(38,8,4) occ(63,8,3) occ(67,8,7) occ(81,8,6) occ(85,8,2) occ(11,9,6) occ(15,9,10) occ(30,9,3) occ(34,9,7) occ(40,9,2) occ(65,9,5) occ(69,9,9) occ(83,9,4) occ(17,10,8) occ(32,10,5)
Optimization: -68
Answer: 10
occ(1,2,5) occ(1,2,6) occ(1,10,6) occ(1,5,7) occ(1,9,8) occ(1,9,1) occ(1,2,10) occ(1,4,10) occ(2,4,8) occ(3,5,8) coverage(84) occ(6,1,7) occ(16,1,2) occ(19,1,8) occ(22,1,3) occ(61,1,5) occ(62,1,9) occ(68,1,6) occ(83,1,4) occ(4,2,9) occ(10,2,4) occ(20,2,1) occ(63,2,3) occ(64,2,7) occ(70,2,8) occ(81,2,2) occ(8,3,6) occ(14,3,1) occ(17,3,7) occ(18,3,3) occ(21,3,9) occ(24,3,2) occ(59,3,4) occ(60,3,10) occ(66,3,5) occ(12,4,3) occ(23,4,7) occ(57,4,2) occ(65,4,4) occ(69,4,6) occ(72,4,9) occ(75,4,5) occ(79,4,1) occ(15,5,6) occ(25,5,5) occ(26,5,1) occ(31,5,2) occ(58,5,9) occ(71,5,4) occ(77,5,3) occ(11,6,7) occ(27,6,3) occ(33,6,4) occ(49,6,2) occ(55,6,1) occ(67,6,5) occ(73,6,6) occ(74,6,8) occ(5,7,9) occ(13,7,5) occ(28,7,2) occ(29,7,1) occ(43,7,8) occ(46,7,7) occ(47,7,4) occ(53,7,3) occ(56,7,10) occ(76,7,6) occ(9,8,8) occ(34,8,2) occ(35,8,5) occ(38,8,4) occ(41,8,10) occ(45,8,6) occ(48,8,9) occ(51,8,1) occ(52,8,7) occ(80,8,3) occ(7,9,10) occ(30,9,3) occ(37,9,7) occ(40,9,2) occ(44,9,6) occ(54,9,9) occ(78,9,5) occ(32,10,1) occ(36,10,3) occ(39,10,9) occ(42,10,4) occ(50,10,8) occ(82,10,2)
Optimization: -84
Answer: 11
occ(1,2,5) occ(1,2,6) occ(1,10,6) occ(1,5,7) occ(1,9,8) occ(1,9,1) occ(1,2,10) occ(1,4,10) occ(2,4,8) occ(3,5,8) coverage(85) occ(9,1,9) occ(35,1,8) occ(41,1,5) occ(51,1,2) occ(55,1,6) occ(65,1,3) occ(39,2,7) occ(43,2,3) occ(53,2,4) occ(57,2,8) occ(67,2,1) occ(73,2,2) occ(7,3,8) occ(11,3,10) occ(21,3,5) occ(33,3,7) occ(37,3,9) occ(45,3,1) occ(49,3,3) occ(59,3,6) occ(63,3,2) occ(71,3,4) occ(5,4,6) occ(12,4,5) occ(16,4,7) occ(23,4,3) occ(56,4,9) occ(61,4,4) occ(69,4,2) occ(75,4,1) occ(10,5,3) occ(13,5,9) occ(18,5,5) occ(19,5,4) occ(25,5,1) occ(31,5,6) occ(47,5,2) occ(60,5,10) occ(4,6,9) occ(8,6,5) occ(14,6,6) occ(15,6,7) occ(29,6,4) occ(54,6,10) occ(58,6,8) occ(77,6,2) occ(84,6,3) occ(6,7,7) occ(17,7,5) occ(20,7,4) occ(24,7,6) occ(27,7,2) occ(38,7,3) occ(44,7,8) occ(62,7,9) occ(82,7,1) occ(26,8,4) occ(30,8,2) occ(36,8,5) occ(42,8,6) occ(46,8,10) occ(52,8,9) occ(68,8,7) occ(74,8,8) occ(79,8,1) occ(83,8,3) occ(22,9,5) occ(34,9,3) occ(40,9,4) occ(50,9,7) occ(64,9,10) occ(70,9,9) occ(76,9,6) occ(80,9,2) occ(28,10,3) occ(32,10,1) occ(48,10,9) occ(66,10,8) occ(72,10,7) occ(78,10,4) occ(81,10,2)
Optimization: -85
Answer: 12
occ(1,2,5) occ(1,2,6) occ(1,10,6) occ(1,5,7) occ(1,9,8) occ(1,9,1) occ(1,2,10) occ(1,4,10) occ(2,4,8) occ(3,5,8) coverage(86) occ(15,1,4) occ(30,1,5) occ(37,1,3) occ(40,1,2) occ(46,1,7) occ(52,1,6) occ(85,1,1) occ(13,2,2) occ(28,2,7) occ(32,2,3) occ(35,2,1) occ(42,2,4) occ(48,2,9) occ(54,2,8) occ(9,3,3) occ(17,3,5) occ(26,3,9) occ(38,3,1) occ(39,3,4) occ(44,3,6) occ(47,3,8) occ(50,3,7) occ(83,3,2) occ(7,4,5) occ(11,4,1) occ(19,4,3) occ(20,4,9) occ(33,4,2) occ(34,4,4) occ(45,4,6) occ(56,4,7) occ(24,5,10) occ(31,5,4) occ(36,5,2) occ(41,5,3) occ(49,5,9) occ(58,5,5) occ(81,5,1) occ(4,6,7) occ(5,6,6) occ(12,6,9) occ(18,6,10) occ(21,6,2) occ(22,6,8) occ(43,6,5) occ(68,6,1) occ(78,6,4) occ(79,6,3) occ(10,7,7) occ(16,7,8) occ(29,7,5) occ(51,7,10) occ(60,7,4) occ(69,7,9) occ(70,7,3) occ(77,7,1) occ(80,7,2) occ(84,7,6) occ(6,8,8) occ(14,8,10) occ(23,8,1) occ(57,8,6) occ(63,8,9) occ(66,8,2) occ(71,8,7) occ(75,8,3) occ(76,8,5) occ(82,8,4) occ(8,9,6) occ(27,9,4) occ(53,9,9) occ(61,9,7) occ(62,9,3) occ(67,9,10) occ(72,9,2) occ(73,9,5) occ(25,10,2) occ(55,10,7) occ(59,10,5) occ(64,10,1) occ(65,10,8) occ(74,10,4)
Optimization: -86
Answer: 13
occ(1,2,5) occ(1,2,6) occ(1,10,6) occ(1,5,7) occ(1,9,8) occ(1,9,1) occ(1,2,10) occ(1,4,10) occ(2,4,8) occ(3,5,8) coverage(87) occ(6,1,7) occ(10,1,9) occ(19,1,6) occ(23,1,4) occ(49,1,1) occ(56,1,2) occ(81,1,5) occ(85,1,3) occ(4,2,9) occ(18,2,8) occ(25,2,2) occ(41,2,4) occ(51,2,3) occ(60,2,1) occ(79,2,7) occ(8,3,8) occ(12,3,10) occ(17,3,7) occ(21,3,5) occ(39,3,6) occ(47,3,2) occ(54,3,1) occ(58,3,3) occ(77,3,9) occ(83,3,4) occ(16,4,7) occ(20,4,9) occ(27,4,1) occ(33,4,6) occ(43,4,3) occ(53,4,4) occ(62,4,2) occ(14,5,9) occ(15,5,6) occ(31,5,4) occ(37,5,5) occ(45,5,1) occ(52,5,2) occ(75,5,10) occ(86,5,3) occ(5,6,6) occ(11,6,9) occ(22,6,10) occ(29,6,2) occ(35,6,7) occ(36,6,1) occ(50,6,4) occ(55,6,5) occ(61,6,8) occ(64,6,3) occ(7,7,8) occ(13,7,7) occ(38,7,3) occ(59,7,6) occ(63,7,10) occ(66,7,1) occ(73,7,9) occ(74,7,5) occ(84,7,4) occ(88,7,2) occ(9,8,10) occ(24,8,9) occ(28,8,7) occ(34,8,2) occ(40,8,1) occ(48,8,5) occ(57,8,4) occ(69,8,8) occ(76,8,3) occ(82,8,6) occ(30,9,5) occ(42,9,3) occ(46,9,7) occ(65,9,9) occ(68,9,2) occ(71,9,10) occ(72,9,6) occ(80,9,4) occ(26,10,8) occ(32,10,3) occ(44,10,5) occ(67,10,7) occ(70,10,4) occ(78,10,2)
Optimization: -87
Answer: 14
occ(1,2,5) occ(1,2,6) occ(1,10,6) occ(1,5,7) occ(1,9,8) occ(1,9,1) occ(1,2,10) occ(1,4,10) occ(2,4,8) occ(3,5,8) coverage(88) occ(6,1,7) occ(10,1,9) occ(19,1,6) occ(23,1,4) occ(49,1,1) occ(60,1,2) occ(66,1,3) occ(81,1,5) occ(4,2,9) occ(18,2,8) occ(25,2,2) occ(51,2,3) occ(64,2,1) occ(79,2,7) occ(85,2,4) occ(8,3,8) occ(12,3,10) occ(17,3,7) occ(21,3,5) occ(47,3,2) occ(58,3,1) occ(62,3,3) occ(68,3,4) occ(77,3,9) occ(83,3,6) occ(16,4,7) occ(20,4,9) occ(27,4,1) occ(33,4,6) occ(39,4,3) occ(53,4,4) occ(70,4,2) occ(87,4,5) occ(14,5,9) occ(15,5,6) occ(31,5,4) occ(37,5,5) occ(45,5,1) occ(56,5,2) occ(75,5,10) occ(86,5,3) occ(5,6,6) occ(11,6,9) occ(22,6,10) occ(29,6,2) occ(35,6,7) occ(36,6,1) occ(41,6,4) occ(55,6,5) occ(61,6,8) occ(72,6,3) occ(7,7,8) occ(13,7,7) occ(38,7,3) occ(43,7,2) occ(54,7,1) occ(59,7,6) occ(63,7,10) occ(73,7,9) occ(74,7,5) occ(84,7,4) occ(9,8,10) occ(24,8,9) occ(28,8,7) occ(34,8,2) occ(40,8,1) occ(48,8,5) occ(57,8,4) occ(69,8,8) occ(76,8,3) occ(82,8,6) occ(30,9,5) occ(42,9,3) occ(46,9,7) occ(52,9,2) occ(65,9,9) occ(71,9,10) occ(80,9,4) occ(26,10,8) occ(32,10,3) occ(44,10,5) occ(50,10,4) occ(67,10,7) occ(78,10,2)
Optimization: -88
Answer: 15
occ(1,2,5) occ(1,2,6) occ(1,10,6) occ(1,5,7) occ(1,9,8) occ(1,9,1) occ(1,2,10) occ(1,4,10) occ(2,4,8) occ(3,5,8) coverage(89) occ(6,1,9) occ(10,1,7) occ(14,1,5) occ(20,1,6) occ(35,1,10) occ(59,1,2) occ(63,1,4) occ(73,1,3) occ(81,1,1) occ(16,2,7) occ(33,2,8) occ(57,2,4) occ(65,2,2) occ(75,2,1) occ(79,2,3) occ(4,3,10) occ(8,3,8) occ(12,3,6) occ(18,3,5) occ(22,3,7) occ(30,3,1) occ(37,3,9) occ(61,3,3) occ(71,3,4) occ(83,3,2) occ(5,4,6) occ(26,4,4) occ(31,4,9) occ(32,4,3) occ(51,4,7) occ(55,4,5) occ(67,4,1) occ(77,4,2) occ(7,5,4) occ(24,5,6) occ(25,5,9) occ(28,5,2) occ(39,5,10) occ(42,5,5) occ(69,5,3) occ(85,5,1) occ(9,6,2) occ(29,6,10) occ(34,6,4) occ(40,6,3) occ(44,6,7) occ(49,6,8) occ(53,6,6) occ(56,6,5) occ(68,6,9) occ(84,6,1) occ(11,7,4) occ(15,7,6) occ(23,7,10) occ(27,7,8) occ(38,7,1) occ(41,7,9) occ(46,7,5) occ(70,7,7) occ(82,7,3) occ(87,7,2) occ(17,8,8) occ(36,8,3) occ(47,8,7) occ(54,8,4) occ(58,8,6) occ(66,8,10) occ(72,8,5) occ(76,8,1) occ(86,8,2) occ(13,9,5) occ(21,9,9) occ(43,9,10) occ(48,9,6) occ(52,9,2) occ(62,9,7) occ(74,9,3) occ(80,9,4) occ(19,10,7) occ(45,10,8) occ(50,10,4) occ(60,10,5) occ(64,10,9) occ(78,10,2) occ(88,10,1)
Optimization: -89
*** Info : (clingo): INTERRUPTED by signal!
SATISFIABLE

TIME LIMIT   : 1
Models       : 15+
  Optimum    : unknown
Optimization : -89
Calls        : 1
Time         : 300.000s (Solving: 298.56s 1st Model: 0.00s Unsat: 0.00s)
CPU Time     : 299.971s
